c User generated cnf file
p cnf 9 45
2 -4 7 0 
8 4 -4 0 
-8 3 7 0 
-6 9 9 0 
7 -2 5 0 
-2 9 5 0 
-5 7 2 0 
9 6 -2 0 
1 6 -2 0 
-7 2 9 0 
4 8 -2 0 
6 6 -6 0 
6 4 -4 0 
9 9 -5 0 
5 8 -7 0 
-1 6 1 0 
8 -9 1 0 
2 -5 6 0 
2 -2 3 0 
5 6 -5 0 
8 -8 1 0 
3 -1 2 0 
6 -7 8 0 
1 5 -7 0 
-6 3 3 0 
4 6 -3 0 
8 8 -3 0 
-6 1 6 0 
-3 2 6 0 
-8 7 5 0 
3 3 -6 0 
6 -6 2 0 
6 -1 6 0 
5 7 -5 0 
1 3 -5 0 
-3 9 4 0 
5 -9 2 0 
5 -9 2 0 
9 1 -3 0 
3 -3 3 0 
9 -2 6 0 
3 6 -8 0 
3 -9 4 0 
-6 7 2 0 
9 9 -1 0 
